Route #1: 1 2 5 29 23 31 45 41 27 11 30 50 3 37 51
Route #2: 1 40 4 6 15 14 53 25 8 26
Route #3: 1 32 21 7 36 39 19 52
Route #4: 1 34 28 9 47
Route #5: 1 48 13 46 49 43 20 16
Route #6: 1 35 22 12 42 18 10
Route #7: 1 38 44 24 33 17
cost 1202
